$molecule
 0 1
 O      1.2685981413      0.0001014315     -1.1174481334
 C      1.9087559329      1.0883154104     -0.6265173159
 C      1.9084282052     -1.0885796880     -0.6271261585
 C      2.9441008032      0.7162300642      0.1671284076
 C      2.9438849953     -0.7172500955      0.1667274862
 H      1.5102722217      2.0431326932     -0.9318424934
 H      1.5096570456     -2.0431060069     -0.9329853487
 H      3.6248714156      1.3727219493      0.6891225435
 H      3.6244578654     -1.3742388124      0.6883542627
 C     -1.3944708158      1.1539077155      0.2106790407
 N     -2.0493260897      0.0003826593     -0.2133089351
 C     -0.1977314935      0.6656647340      0.9801039353
 O     -1.7326915223      2.2905821714     -0.0066879493
 C     -1.3948377723     -1.1535945810      0.2100113668
 C     -0.1979431235     -0.6661768339      0.9797187223
 O     -1.7334184677     -2.2900364466     -0.0080121203
 H     -2.8988028138      0.0006756281     -0.7575481194
 H      0.5075788966      1.3489016407      1.4337344736
 H      0.5071501374     -1.3499000972      1.4329539041
 ****
 O      0.9479578270      0.0002001221     -1.2862070597
 C      1.1654514144      1.0638666809     -0.3642503655
 C      1.1651221037     -1.0640385729     -0.3648507682
 C      2.4804055128      0.6653534066      0.2884399855
 C      2.4801954153     -0.6662967635      0.2880753610
 H      1.0977218374      2.0324358223     -0.8562105233
 H      1.0971136057     -2.0323193955     -0.8573398946
 H      3.1940513154      1.3470519857      0.7328985074
 H      3.1936399211     -1.3484637349      0.7321398845
 C     -1.3259426414      1.1696623200      0.1499475393
 N     -2.0320556810      0.0003479012     -0.0947194067
 C      0.0415516930      0.7712256316      0.6868700692
 O     -1.7352971237      2.2874351433     -0.0482862834
 C     -1.3263171103     -1.1693341021      0.1492703311
 C      0.0413043320     -0.7716464053      0.6864292028
 O     -1.7360362803     -2.2868616135     -0.0495918074
 H     -2.9511444167      0.0006167870     -0.5172062183
 H      0.2199564813      1.2521014449      1.6498455446
 H      0.2195489412     -1.2531272149      1.6491307411
$end

$rem
   job_type = fsm
   basis = 6-31g*
   max_scf_cycles = 200
   gen_scfman = true
   xc_grid = 3
   scf_algorithm = diis_gdm
   resp_charges = true
   symmetry = false
   sym_ignore = true
   method = wb97xd
   fsm_mode = 2
   fsm_nnode = 15
   fsm_ngrad = 4
   fsm_opt_mode = 2
$end
